200
120
100
100
100
100
98
98
97
97
97
96
96
96
96
95
95
95
94
94
94
94
93
93
93
93
92
92
92
91
91
91
91
91
91
90
90
89
89
86
86
86
85
85
85
85
84
83
82
82
82
81
80
80
79
79
79
78
78
78
78
77
77
77
77
75
75
75
74
74
74
74
74
74
73
73
73
72
72
72
71
71
71
70
68
68
68
67
67
67
67
67
66
66
66
66
65
64
64
64
63
63
62
62
62
62
61
61
60
59
58
57
57
56
56
55
55
55
54
53
53
53
53
52
52
52
51
50
50
49
48
47
47
47
47
46
46
45
45
45
45
45
44
44
44
42
41
40
40
40
39
39
39
38
38
38
36
36
36
36
36
36
35
35
35
35
34
34
34
34
33
33
33
32
32
31
31
30
30
30
29
28
28
27
27
27
26
25
24
24
23
23
23
23
22
22
22
22
21
21
21
20
